(declare-fun bvlambda_1_ ()Bool         )
(declare-fun bvlambda_2_ ()Bool         )
(declare-fun bvlambda_3_ () (_ BitVec 7))
(declare-fun a47 () (Array (_ BitVec 4) (_ BitVec 10)))
(declare-fun a52 () (Array (_ BitVec 1) (_ BitVec 10)))
(declare-fun a53 () (Array (_ BitVec 3) (_ BitVec 6)))
(assert
(let (($e1 false    ))
(let (($e2 (_ bv12 4)))
(let (($e8 (_ bv1462 14)))
(let (($e11 (_ bv0 5)))
(let (($e14 false    ))
(let (($e16 (_ bv0 10)))
(let (($e24 (_ bv0 4)))
(let (($e25 (_ bv0 6)))
(let (($e27 (_ bv0 11)))
(let (($e28 (_ bv510 9)))
(let (($e85 (       bvnot $e28              )))
(let (($e97 (concat        $e11  bvlambda_1_)))
(let (($e98 (concat $e97 bvlambda_2_)))
(let (($e99 (concat $e98 bvlambda_3_)))
(let (($e100                          $e99      ))
(let (($e101 (bvmul        $e8  $e100)))
(let (($e103 (select a47        $e2 )))
(let (($e104 ((_ extract 9 7) $e103)))
(let (($e105 (select a53 $e104)))
(let (($e110 (concat $e24 $e105)))
(let (($e111 (   extract      $e101)))
(let (($e112 (store a52        $e111  $e16)))
(let (($e113 (select $e112 true       )))
(let (($e116                          $e113 ))
(let (($e120               $e116 ))
(let (($e125                         $e120 ))
(let (($e126               $e125                ))
(let (($e127      (bvult        $e126  $e110)         ))
(let (($e128               $e127                ))
(let (($e133                      $e128 ))
(let (($e137                             $e133  ))
(let (($e138        $e137      ))
(let (($e139 ((_ extract 3 0) $e85)))
(let (($e140 (   extract      $e103)))
(let (($e141 (store a52 $e1 $e16)))
(let (($e142 (select $e141 $e140)))
(let (($e143 (concat $e25 $e142)))
(let (($e144 (bvshl $e143  ((_ zero_extend 12) $e139))))
(let (($e145 ((_ extract 9 0) $e144)))
(let (($e151 (concat        $e14  $e145)))
(let (($e152                    $e151      ))
(let (($e155                    $e152       ))
(let (($e160 (concat $e27 true         )))
(let (($e161                    $e160       ))
(let (($e162         $e161     ))
(let (($e165 ((_ extract 10 0) $e162)))
(let (($e166                   $e155 ))
(let (($e167      (bvult $e166 $e165)         ))
(let (($e168        $e167       ))
(let (($e170                             $e168  ))
(let (($e183              $e170 ))
(let (($e188              $e183 ))
(let (($e189               $e188                ))
                  (= $e189        $e138 )
                                                                                                                                                                                                                                                                               ))    )            ) ))))  )))    )  ))     )))))))))   )    ))))    )   )  ))))    ))) )))))           )                                            )) ))       ) )  )  )     )))
